6338626790731762856502,13,1,2,05,12,1,2,015,15,1,2,014,9,1,2,08,12,1,2,04,12,1,2,02,6,1,2,04,3,1,2,03,6,1,2,013,9,1,2,07,7,1,2,02,10,1,2,01,10,1,2,010,2,1,2,02,9,1,2,01,12,1,2,013,7,1,2,04,6,1,2,014,10,1,2,015,6,1,2,012,14,1,2,08,2,1,2,09,5,1,2,010,5,1,2,07,9,1,2,013,4,1,2,06,13,1,2,09,13,1,2,01,9,1,2,012,1,1,2,03,7,1,2,011,10,1,2,03,14,1,2,07,11,1,2,06,2,1,2,013,8,1,2,04,9,1,2,07,12,1,2,04,5,1,2,015,6,1,2,07,1,1,2,02,6,1,2,05,1,1,2,05,14,1,2,015,8,1,2,03,8,1,2,03,6,1,2,07,5,1,2,05,10,1,2,011,10,1,2,0